original problem has 2025 variables (1800 bin, 0 int, 0 impl, 225 cont) and 230 constraints
1/1 feasible solution given by solution candidate storage, new primal bound 9.240000e+02

presolving:
(round 1, fast)       425 del vars, 20 del conss, 0 add conss, 200 chg bounds, 0 chg sides, 0 chg coeffs, 0 upgd conss, 0 impls, 170 clqs
   (0.0s) running MILP presolver
   (0.0s) MILP presolver found nothing
(round 2, exhaustive) 425 del vars, 20 del conss, 0 add conss, 200 chg bounds, 0 chg sides, 0 chg coeffs, 210 upgd conss, 0 impls, 170 clqs
   (0.1s) probing: 51/1600 (3.2%) - 0 fixings, 0 aggregations, 0 implications, 0 bound changes
   (0.1s) probing aborted: 50/50 successive totally useless probings
presolving (3 rounds: 3 fast, 2 medium, 2 exhaustive):
 425 deleted vars, 20 deleted constraints, 0 added constraints, 200 tightened bounds, 0 added holes, 0 changed sides, 0 changed coefficients
 0 implications, 170 cliques
presolved problem has 1600 variables (1600 bin, 0 int, 0 impl, 0 cont) and 210 constraints
     40 constraints of type <knapsack>
    170 constraints of type <setppc>
transformed objective value is always integral (scale: 1)
Presolving Time: 0.05
transformed 1/1 original solutions to the transformed problem space

 time | node  | left  |LP iter|LP it/n|mem/heur|mdpt |vars |cons |rows |cuts |sepa|confs|strbr|  dualbound   | primalbound  |  gap   | compl. 
  0.7s|     1 |     0 | 10214 |     - |    21M |   0 |1600 | 210 | 210 |   0 |  0 |   0 |   0 | 9.170000e+02 | 9.240000e+02 |   0.76%| unknown
  0.7s|     1 |     2 | 10214 |     - |    21M |   0 |1600 | 210 | 210 |   0 |  1 |   0 |   0 | 9.170000e+02 | 9.240000e+02 |   0.76%| unknown

SCIP Status        : solving was interrupted [node limit reached]
Solving Time (sec) : 0.67
Solving Nodes      : 1
Primal Bound       : +9.24000000000000e+02 (1 solutions)
Dual Bound         : +9.17000000000000e+02
Gap                : 0.76 %
wrote problem to file /mnt/lscratch/users/dferrario/Adaptive-Cutsel-MILP/TransformedInstances/10teams__trans__seed__1.mps
